sat
(:elim-unconstrained  19
 :max-memory          18.73
 :memory              18.73
 :num-allocs          57196
 :rlimit-count        18098
 :solve-eqs-elim-vars 49
 :solve-eqs-steps     49
 :time                0.00
 :total-time          0.04)
